
Gurobi 10.0.1 (linux64) logging started Sun Nov 26 15:37:31 2023

Set parameter LogFile to value "ArtificialInstance/ExperimentV2/S2T5K1/AdSp/gurobiDoSp1.txt"
Gurobi Optimizer version 10.0.1 build v10.0.1rc0 (linux64)

CPU model: AMD EPYC 7H12 64-Core Processor, instruction set [SSE2|AVX|AVX2]
Thread count: 128 physical cores, 128 logical processors, using up to 32 threads

Academic license 656792 - for non-commercial use only - registered to b.___@student.vu.nl
Optimize a model with 3393 rows, 3123 columns and 11893 nonzeros
Model fingerprint: 0xf100f9eb
Variable types: 0 continuous, 3123 integer (3123 binary)
Coefficient statistics:
  Matrix range     [1e+00, 1e+00]
  Objective range  [2e+00, 2e+01]
  Bounds range     [1e+00, 1e+00]
  RHS range        [1e+00, 1e+00]
Presolve removed 2457 rows and 2258 columns
Presolve time: 0.04s
Presolved: 936 rows, 865 columns, 3456 nonzeros
Variable types: 0 continuous, 865 integer (865 binary)
Found heuristic solution: objective 97.4741402

Root relaxation: objective 5.213482e+01, 298 iterations, 0.00 seconds (0.00 work units)

    Nodes    |    Current Node    |     Objective Bounds      |     Work
 Expl Unexpl |  Obj  Depth IntInf | Incumbent    BestBd   Gap | It/Node Time

*    0     0               0      52.1348213   52.13482  0.00%     -    0s

Explored 1 nodes (298 simplex iterations) in 0.07 seconds (0.04 work units)
Thread count was 32 (of 128 available processors)

Solution count 2: 52.1348 97.4741 

Optimal solution found (tolerance 1.00e-04)
Best objective 5.213482132654e+01, best bound 5.213482132654e+01, gap 0.0000%
